(set-logic ALL)
(set-option :produce-models true)
(declare-sort BoundSet 0)
(declare-sort UnboundSet 0)
(declare-fun IsHavingHeart (BoundSet) Bool)
(declare-fun WillMakeRightDecision (BoundSet) Bool)
(assert (not (=> (and (exists ((a BoundSet)) (IsHavingHeart a)) (forall ((d BoundSet)) (=> (IsHavingHeart d) (WillMakeRightDecision d)))) (exists ((a BoundSet)) (WillMakeRightDecision a)))))
(check-sat)
(get-model)